<instance format="XCSP3" type="COP">
  <variables>
    <array id="s" note="Start time of operation j for job i" size="[15][15]"> 0..998 </array>
    <array id="e" note="End time of last operation of job i" size="[15]"> 0..998 </array>
    <array id="d" note="Duration of operation j for job i" size="[15][15]">
      <domain for="d[0][]"> 8 16 23 32 47 54 60 64 69 70 73 82 85 92 96 </domain>
      <domain for="d[1][]"> 14 23 26 32 33 35 46 51 52 54 56 60 66 </domain>
      <domain for="d[2][]"> 1 14 37 38 40 62 64 65 67 78 80 89 90 98 </domain>
      <domain for="d[3][]"> 6 15 18 34 50 55 59 65 66 71 79 92 94 </domain>
      <domain for="d[4][]"> 11 18 19 39 43 49 53 56 58 65 69 73 91 95 99 </domain>
      <domain for="d[5][]"> 5 7 16 22 24 31 33 47 67 75 77 78 87 92 95 </domain>
      <domain for="d[6][]"> 9 12..14 32 37 41 54 61 63 70 78 89 92 </domain>
      <domain for="d[7][]"> 4 5 11 12 23 25 48 53 58 61 64 70 71 74 80 </domain>
      <domain for="d[8][]"> 17..19 26 36 43 44 60 64 69 75 77 85 88 98 </domain>
      <domain for="d[9][]"> 1 2 5 12 26 43 49 50 61 64 65 72 89 90 </domain>
      <domain for="d[10][]"> 4 10 15 18 24 40 58 63 64 66 67 82 </domain>
      <domain for="d[11][]"> 13 17 19 28 29 33 40 41 50 56 82 91 95 </domain>
      <domain for="d[12][]"> 1 16 19 22 23 26 31 39 45 65 69 86 94 </domain>
      <domain for="d[13][]"> 3 4 7 8 26 34 37 50 51 57 60 63 66 86 92 </domain>
      <domain for="d[14][]"> 3 9 11 19..21 23 28 38 39 43 56 73 80 82 </domain>
    </array>
    <array id="w" note="Which machine for operation j of job i" size="[15][15]"> 0..14 </array>
    <array id="sd" note="Start (dual) time of job i, machine k" size="[15][15]"> 0..998 </array>
  </variables>
  <constraints>
    <group>
      <intension> eq(%0,add(%1,%2)) </intension>
      <args> e[0] s[0][14] d[0][14] </args>
      <args> e[1] s[1][14] d[1][14] </args>
      <args> e[2] s[2][14] d[2][14] </args>
      <args> e[3] s[3][14] d[3][14] </args>
      <args> e[4] s[4][14] d[4][14] </args>
      <args> e[5] s[5][14] d[5][14] </args>
      <args> e[6] s[6][14] d[6][14] </args>
      <args> e[7] s[7][14] d[7][14] </args>
      <args> e[8] s[8][14] d[8][14] </args>
      <args> e[9] s[9][14] d[9][14] </args>
      <args> e[10] s[10][14] d[10][14] </args>
      <args> e[11] s[11][14] d[11][14] </args>
      <args> e[12] s[12][14] d[12][14] </args>
      <args> e[13] s[13][14] d[13][14] </args>
      <args> e[14] s[14][14] d[14][14] </args>
    </group>
    <group>
      <allDifferent> %... </allDifferent>
      <args> w[0][] </args>
      <args> w[1][] </args>
      <args> w[2][] </args>
      <args> w[3][] </args>
      <args> w[4][] </args>
      <args> w[5][] </args>
      <args> w[6][] </args>
      <args> w[7][] </args>
      <args> w[8][] </args>
      <args> w[9][] </args>
      <args> w[10][] </args>
      <args> w[11][] </args>
      <args> w[12][] </args>
      <args> w[13][] </args>
      <args> w[14][] </args>
    </group>
    <block>
      <group>
        <extension>
          <list> %0 %1 </list>
          <supports> (0,73)(1,92)(2,60)(3,16)(4,47)(5,8)(6,82)(7,64)(8,96)(9,32)(10,85)(11,70)(12,54)(13,23)(14,69) </supports>
        </extension>
        <args> w[0][0] d[0][0] </args>
        <args> w[0][1] d[0][1] </args>
        <args> w[0][2] d[0][2] </args>
        <args> w[0][3] d[0][3] </args>
        <args> w[0][4] d[0][4] </args>
        <args> w[0][5] d[0][5] </args>
        <args> w[0][6] d[0][6] </args>
        <args> w[0][7] d[0][7] </args>
        <args> w[0][8] d[0][8] </args>
        <args> w[0][9] d[0][9] </args>
        <args> w[0][10] d[0][10] </args>
        <args> w[0][11] d[0][11] </args>
        <args> w[0][12] d[0][12] </args>
        <args> w[0][13] d[0][13] </args>
        <args> w[0][14] d[0][14] </args>
      </group>
      <group>
        <extension>
          <list> %0 %1 </list>
          <supports> (0,23)(1,33)(2,52)(3,51)(4,46)(5,56)(6,66)(7,54)(8,35)(9,35)(10,60)(11,14)(12,32)(13,33)(14,26) </supports>
        </extension>
        <args> w[1][0] d[1][0] </args>
        <args> w[1][1] d[1][1] </args>
        <args> w[1][2] d[1][2] </args>
        <args> w[1][3] d[1][3] </args>
        <args> w[1][4] d[1][4] </args>
        <args> w[1][5] d[1][5] </args>
        <args> w[1][6] d[1][6] </args>
        <args> w[1][7] d[1][7] </args>
        <args> w[1][8] d[1][8] </args>
        <args> w[1][9] d[1][9] </args>
        <args> w[1][10] d[1][10] </args>
        <args> w[1][11] d[1][11] </args>
        <args> w[1][12] d[1][12] </args>
        <args> w[1][13] d[1][13] </args>
        <args> w[1][14] d[1][14] </args>
      </group>
      <group>
        <extension>
          <list> %0 %1 </list>
          <supports> (0,64)(1,89)(2,90)(3,1)(4,37)(5,80)(6,40)(7,38)(8,62)(9,67)(10,78)(11,14)(12,98)(13,37)(14,65) </supports>
        </extension>
        <args> w[2][0] d[2][0] </args>
        <args> w[2][1] d[2][1] </args>
        <args> w[2][2] d[2][2] </args>
        <args> w[2][3] d[2][3] </args>
        <args> w[2][4] d[2][4] </args>
        <args> w[2][5] d[2][5] </args>
        <args> w[2][6] d[2][6] </args>
        <args> w[2][7] d[2][7] </args>
        <args> w[2][8] d[2][8] </args>
        <args> w[2][9] d[2][9] </args>
        <args> w[2][10] d[2][10] </args>
        <args> w[2][11] d[2][11] </args>
        <args> w[2][12] d[2][12] </args>
        <args> w[2][13] d[2][13] </args>
        <args> w[2][14] d[2][14] </args>
      </group>
      <group>
        <extension>
          <list> %0 %1 </list>
          <supports> (0,59)(1,65)(2,94)(3,66)(4,18)(5,50)(6,15)(7,34)(8,71)(9,94)(10,6)(11,18)(12,79)(13,92)(14,55) </supports>
        </extension>
        <args> w[3][0] d[3][0] </args>
        <args> w[3][1] d[3][1] </args>
        <args> w[3][2] d[3][2] </args>
        <args> w[3][3] d[3][3] </args>
        <args> w[3][4] d[3][4] </args>
        <args> w[3][5] d[3][5] </args>
        <args> w[3][6] d[3][6] </args>
        <args> w[3][7] d[3][7] </args>
        <args> w[3][8] d[3][8] </args>
        <args> w[3][9] d[3][9] </args>
        <args> w[3][10] d[3][10] </args>
        <args> w[3][11] d[3][11] </args>
        <args> w[3][12] d[3][12] </args>
        <args> w[3][13] d[3][13] </args>
        <args> w[3][14] d[3][14] </args>
      </group>
      <group>
        <extension>
          <list> %0 %1 </list>
          <supports> (0,19)(1,39)(2,18)(3,95)(4,99)(5,53)(6,69)(7,43)(8,65)(9,58)(10,73)(11,91)(12,11)(13,49)(14,56) </supports>
        </extension>
        <args> w[4][0] d[4][0] </args>
        <args> w[4][1] d[4][1] </args>
        <args> w[4][2] d[4][2] </args>
        <args> w[4][3] d[4][3] </args>
        <args> w[4][4] d[4][4] </args>
        <args> w[4][5] d[4][5] </args>
        <args> w[4][6] d[4][6] </args>
        <args> w[4][7] d[4][7] </args>
        <args> w[4][8] d[4][8] </args>
        <args> w[4][9] d[4][9] </args>
        <args> w[4][10] d[4][10] </args>
        <args> w[4][11] d[4][11] </args>
        <args> w[4][12] d[4][12] </args>
        <args> w[4][13] d[4][13] </args>
        <args> w[4][14] d[4][14] </args>
      </group>
      <group>
        <extension>
          <list> %0 %1 </list>
          <supports> (0,67)(1,24)(2,7)(3,75)(4,87)(5,22)(6,47)(7,95)(8,31)(9,77)(10,78)(11,33)(12,5)(13,16)(14,92) </supports>
        </extension>
        <args> w[5][0] d[5][0] </args>
        <args> w[5][1] d[5][1] </args>
        <args> w[5][2] d[5][2] </args>
        <args> w[5][3] d[5][3] </args>
        <args> w[5][4] d[5][4] </args>
        <args> w[5][5] d[5][5] </args>
        <args> w[5][6] d[5][6] </args>
        <args> w[5][7] d[5][7] </args>
        <args> w[5][8] d[5][8] </args>
        <args> w[5][9] d[5][9] </args>
        <args> w[5][10] d[5][10] </args>
        <args> w[5][11] d[5][11] </args>
        <args> w[5][12] d[5][12] </args>
        <args> w[5][13] d[5][13] </args>
        <args> w[5][14] d[5][14] </args>
      </group>
      <group>
        <extension>
          <list> %0 %1 </list>
          <supports> (0,63)(1,63)(2,32)(3,37)(4,41)(5,78)(6,54)(7,14)(8,61)(9,89)(10,9)(11,12)(12,70)(13,92)(14,13) </supports>
        </extension>
        <args> w[6][0] d[6][0] </args>
        <args> w[6][1] d[6][1] </args>
        <args> w[6][2] d[6][2] </args>
        <args> w[6][3] d[6][3] </args>
        <args> w[6][4] d[6][4] </args>
        <args> w[6][5] d[6][5] </args>
        <args> w[6][6] d[6][6] </args>
        <args> w[6][7] d[6][7] </args>
        <args> w[6][8] d[6][8] </args>
        <args> w[6][9] d[6][9] </args>
        <args> w[6][10] d[6][10] </args>
        <args> w[6][11] d[6][11] </args>
        <args> w[6][12] d[6][12] </args>
        <args> w[6][13] d[6][13] </args>
        <args> w[6][14] d[6][14] </args>
      </group>
      <group>
        <extension>
          <list> %0 %1 </list>
          <supports> (0,48)(1,5)(2,70)(3,71)(4,12)(5,80)(6,53)(7,64)(8,23)(9,4)(10,11)(11,74)(12,58)(13,61)(14,25) </supports>
        </extension>
        <args> w[7][0] d[7][0] </args>
        <args> w[7][1] d[7][1] </args>
        <args> w[7][2] d[7][2] </args>
        <args> w[7][3] d[7][3] </args>
        <args> w[7][4] d[7][4] </args>
        <args> w[7][5] d[7][5] </args>
        <args> w[7][6] d[7][6] </args>
        <args> w[7][7] d[7][7] </args>
        <args> w[7][8] d[7][8] </args>
        <args> w[7][9] d[7][9] </args>
        <args> w[7][10] d[7][10] </args>
        <args> w[7][11] d[7][11] </args>
        <args> w[7][12] d[7][12] </args>
        <args> w[7][13] d[7][13] </args>
        <args> w[7][14] d[7][14] </args>
      </group>
      <group>
        <extension>
          <list> %0 %1 </list>
          <supports> (0,98)(1,18)(2,64)(3,88)(4,43)(5,17)(6,69)(7,77)(8,36)(9,26)(10,60)(11,19)(12,85)(13,75)(14,44) </supports>
        </extension>
        <args> w[8][0] d[8][0] </args>
        <args> w[8][1] d[8][1] </args>
        <args> w[8][2] d[8][2] </args>
        <args> w[8][3] d[8][3] </args>
        <args> w[8][4] d[8][4] </args>
        <args> w[8][5] d[8][5] </args>
        <args> w[8][6] d[8][6] </args>
        <args> w[8][7] d[8][7] </args>
        <args> w[8][8] d[8][8] </args>
        <args> w[8][9] d[8][9] </args>
        <args> w[8][10] d[8][10] </args>
        <args> w[8][11] d[8][11] </args>
        <args> w[8][12] d[8][12] </args>
        <args> w[8][13] d[8][13] </args>
        <args> w[8][14] d[8][14] </args>
      </group>
      <group>
        <extension>
          <list> %0 %1 </list>
          <supports> (0,5)(1,64)(2,43)(3,50)(4,89)(5,2)(6,12)(7,90)(8,65)(9,61)(10,72)(11,1)(12,49)(13,50)(14,26) </supports>
        </extension>
        <args> w[9][0] d[9][0] </args>
        <args> w[9][1] d[9][1] </args>
        <args> w[9][2] d[9][2] </args>
        <args> w[9][3] d[9][3] </args>
        <args> w[9][4] d[9][4] </args>
        <args> w[9][5] d[9][5] </args>
        <args> w[9][6] d[9][6] </args>
        <args> w[9][7] d[9][7] </args>
        <args> w[9][8] d[9][8] </args>
        <args> w[9][9] d[9][9] </args>
        <args> w[9][10] d[9][10] </args>
        <args> w[9][11] d[9][11] </args>
        <args> w[9][12] d[9][12] </args>
        <args> w[9][13] d[9][13] </args>
        <args> w[9][14] d[9][14] </args>
      </group>
      <group>
        <extension>
          <list> %0 %1 </list>
          <supports> (0,4)(1,18)(2,18)(3,82)(4,66)(5,58)(6,15)(7,18)(8,64)(9,67)(10,24)(11,63)(12,64)(13,40)(14,10) </supports>
        </extension>
        <args> w[10][0] d[10][0] </args>
        <args> w[10][1] d[10][1] </args>
        <args> w[10][2] d[10][2] </args>
        <args> w[10][3] d[10][3] </args>
        <args> w[10][4] d[10][4] </args>
        <args> w[10][5] d[10][5] </args>
        <args> w[10][6] d[10][6] </args>
        <args> w[10][7] d[10][7] </args>
        <args> w[10][8] d[10][8] </args>
        <args> w[10][9] d[10][9] </args>
        <args> w[10][10] d[10][10] </args>
        <args> w[10][11] d[10][11] </args>
        <args> w[10][12] d[10][12] </args>
        <args> w[10][13] d[10][13] </args>
        <args> w[10][14] d[10][14] </args>
      </group>
      <group>
        <extension>
          <list> %0 %1 </list>
          <supports> (0,56)(1,28)(2,17)(3,19)(4,29)(5,50)(6,91)(7,13)(8,95)(9,40)(10,33)(11,41)(12,95)(13,29)(14,82) </supports>
        </extension>
        <args> w[11][0] d[11][0] </args>
        <args> w[11][1] d[11][1] </args>
        <args> w[11][2] d[11][2] </args>
        <args> w[11][3] d[11][3] </args>
        <args> w[11][4] d[11][4] </args>
        <args> w[11][5] d[11][5] </args>
        <args> w[11][6] d[11][6] </args>
        <args> w[11][7] d[11][7] </args>
        <args> w[11][8] d[11][8] </args>
        <args> w[11][9] d[11][9] </args>
        <args> w[11][10] d[11][10] </args>
        <args> w[11][11] d[11][11] </args>
        <args> w[11][12] d[11][12] </args>
        <args> w[11][13] d[11][13] </args>
        <args> w[11][14] d[11][14] </args>
      </group>
      <group>
        <extension>
          <list> %0 %1 </list>
          <supports> (0,31)(1,23)(2,22)(3,45)(4,86)(5,94)(6,26)(7,69)(8,16)(9,39)(10,19)(11,45)(12,26)(13,1)(14,65) </supports>
        </extension>
        <args> w[12][0] d[12][0] </args>
        <args> w[12][1] d[12][1] </args>
        <args> w[12][2] d[12][2] </args>
        <args> w[12][3] d[12][3] </args>
        <args> w[12][4] d[12][4] </args>
        <args> w[12][5] d[12][5] </args>
        <args> w[12][6] d[12][6] </args>
        <args> w[12][7] d[12][7] </args>
        <args> w[12][8] d[12][8] </args>
        <args> w[12][9] d[12][9] </args>
        <args> w[12][10] d[12][10] </args>
        <args> w[12][11] d[12][11] </args>
        <args> w[12][12] d[12][12] </args>
        <args> w[12][13] d[12][13] </args>
        <args> w[12][14] d[12][14] </args>
      </group>
      <group>
        <extension>
          <list> %0 %1 </list>
          <supports> (0,4)(1,26)(2,37)(3,51)(4,7)(5,57)(6,60)(7,63)(8,92)(9,3)(10,86)(11,34)(12,50)(13,66)(14,8) </supports>
        </extension>
        <args> w[13][0] d[13][0] </args>
        <args> w[13][1] d[13][1] </args>
        <args> w[13][2] d[13][2] </args>
        <args> w[13][3] d[13][3] </args>
        <args> w[13][4] d[13][4] </args>
        <args> w[13][5] d[13][5] </args>
        <args> w[13][6] d[13][6] </args>
        <args> w[13][7] d[13][7] </args>
        <args> w[13][8] d[13][8] </args>
        <args> w[13][9] d[13][9] </args>
        <args> w[13][10] d[13][10] </args>
        <args> w[13][11] d[13][11] </args>
        <args> w[13][12] d[13][12] </args>
        <args> w[13][13] d[13][13] </args>
        <args> w[13][14] d[13][14] </args>
      </group>
      <group>
        <extension>
          <list> %0 %1 </list>
          <supports> (0,9)(1,82)(2,80)(3,3)(4,73)(5,21)(6,28)(7,38)(8,11)(9,19)(10,23)(11,56)(12,20)(13,43)(14,39) </supports>
        </extension>
        <args> w[14][0] d[14][0] </args>
        <args> w[14][1] d[14][1] </args>
        <args> w[14][2] d[14][2] </args>
        <args> w[14][3] d[14][3] </args>
        <args> w[14][4] d[14][4] </args>
        <args> w[14][5] d[14][5] </args>
        <args> w[14][6] d[14][6] </args>
        <args> w[14][7] d[14][7] </args>
        <args> w[14][8] d[14][8] </args>
        <args> w[14][9] d[14][9] </args>
        <args> w[14][10] d[14][10] </args>
        <args> w[14][11] d[14][11] </args>
        <args> w[14][12] d[14][12] </args>
        <args> w[14][13] d[14][13] </args>
        <args> w[14][14] d[14][14] </args>
      </group>
    </block>
    <group>
      <intension> le(add(%0,%1),%2) </intension>
      <args> s[0][0] d[0][0] s[0][1] </args>
      <args> s[0][1] d[0][1] s[0][2] </args>
      <args> s[0][2] d[0][2] s[0][3] </args>
      <args> s[0][3] d[0][3] s[0][4] </args>
      <args> s[0][4] d[0][4] s[0][5] </args>
      <args> s[0][5] d[0][5] s[0][6] </args>
      <args> s[0][6] d[0][6] s[0][7] </args>
      <args> s[0][7] d[0][7] s[0][8] </args>
      <args> s[0][8] d[0][8] s[0][9] </args>
      <args> s[0][9] d[0][9] s[0][10] </args>
      <args> s[0][10] d[0][10] s[0][11] </args>
      <args> s[0][11] d[0][11] s[0][12] </args>
      <args> s[0][12] d[0][12] s[0][13] </args>
      <args> s[0][13] d[0][13] s[0][14] </args>
      <args> s[1][0] d[1][0] s[1][1] </args>
      <args> s[1][1] d[1][1] s[1][2] </args>
      <args> s[1][2] d[1][2] s[1][3] </args>
      <args> s[1][3] d[1][3] s[1][4] </args>
      <args> s[1][4] d[1][4] s[1][5] </args>
      <args> s[1][5] d[1][5] s[1][6] </args>
      <args> s[1][6] d[1][6] s[1][7] </args>
      <args> s[1][7] d[1][7] s[1][8] </args>
      <args> s[1][8] d[1][8] s[1][9] </args>
      <args> s[1][9] d[1][9] s[1][10] </args>
      <args> s[1][10] d[1][10] s[1][11] </args>
      <args> s[1][11] d[1][11] s[1][12] </args>
      <args> s[1][12] d[1][12] s[1][13] </args>
      <args> s[1][13] d[1][13] s[1][14] </args>
      <args> s[2][0] d[2][0] s[2][1] </args>
      <args> s[2][1] d[2][1] s[2][2] </args>
      <args> s[2][2] d[2][2] s[2][3] </args>
      <args> s[2][3] d[2][3] s[2][4] </args>
      <args> s[2][4] d[2][4] s[2][5] </args>
      <args> s[2][5] d[2][5] s[2][6] </args>
      <args> s[2][6] d[2][6] s[2][7] </args>
      <args> s[2][7] d[2][7] s[2][8] </args>
      <args> s[2][8] d[2][8] s[2][9] </args>
      <args> s[2][9] d[2][9] s[2][10] </args>
      <args> s[2][10] d[2][10] s[2][11] </args>
      <args> s[2][11] d[2][11] s[2][12] </args>
      <args> s[2][12] d[2][12] s[2][13] </args>
      <args> s[2][13] d[2][13] s[2][14] </args>
      <args> s[3][0] d[3][0] s[3][1] </args>
      <args> s[3][1] d[3][1] s[3][2] </args>
      <args> s[3][2] d[3][2] s[3][3] </args>
      <args> s[3][3] d[3][3] s[3][4] </args>
      <args> s[3][4] d[3][4] s[3][5] </args>
      <args> s[3][5] d[3][5] s[3][6] </args>
      <args> s[3][6] d[3][6] s[3][7] </args>
      <args> s[3][7] d[3][7] s[3][8] </args>
      <args> s[3][8] d[3][8] s[3][9] </args>
      <args> s[3][9] d[3][9] s[3][10] </args>
      <args> s[3][10] d[3][10] s[3][11] </args>
      <args> s[3][11] d[3][11] s[3][12] </args>
      <args> s[3][12] d[3][12] s[3][13] </args>
      <args> s[3][13] d[3][13] s[3][14] </args>
      <args> s[4][0] d[4][0] s[4][1] </args>
      <args> s[4][1] d[4][1] s[4][2] </args>
      <args> s[4][2] d[4][2] s[4][3] </args>
      <args> s[4][3] d[4][3] s[4][4] </args>
      <args> s[4][4] d[4][4] s[4][5] </args>
      <args> s[4][5] d[4][5] s[4][6] </args>
      <args> s[4][6] d[4][6] s[4][7] </args>
      <args> s[4][7] d[4][7] s[4][8] </args>
      <args> s[4][8] d[4][8] s[4][9] </args>
      <args> s[4][9] d[4][9] s[4][10] </args>
      <args> s[4][10] d[4][10] s[4][11] </args>
      <args> s[4][11] d[4][11] s[4][12] </args>
      <args> s[4][12] d[4][12] s[4][13] </args>
      <args> s[4][13] d[4][13] s[4][14] </args>
      <args> s[5][0] d[5][0] s[5][1] </args>
      <args> s[5][1] d[5][1] s[5][2] </args>
      <args> s[5][2] d[5][2] s[5][3] </args>
      <args> s[5][3] d[5][3] s[5][4] </args>
      <args> s[5][4] d[5][4] s[5][5] </args>
      <args> s[5][5] d[5][5] s[5][6] </args>
      <args> s[5][6] d[5][6] s[5][7] </args>
      <args> s[5][7] d[5][7] s[5][8] </args>
      <args> s[5][8] d[5][8] s[5][9] </args>
      <args> s[5][9] d[5][9] s[5][10] </args>
      <args> s[5][10] d[5][10] s[5][11] </args>
      <args> s[5][11] d[5][11] s[5][12] </args>
      <args> s[5][12] d[5][12] s[5][13] </args>
      <args> s[5][13] d[5][13] s[5][14] </args>
      <args> s[6][0] d[6][0] s[6][1] </args>
      <args> s[6][1] d[6][1] s[6][2] </args>
      <args> s[6][2] d[6][2] s[6][3] </args>
      <args> s[6][3] d[6][3] s[6][4] </args>
      <args> s[6][4] d[6][4] s[6][5] </args>
      <args> s[6][5] d[6][5] s[6][6] </args>
      <args> s[6][6] d[6][6] s[6][7] </args>
      <args> s[6][7] d[6][7] s[6][8] </args>
      <args> s[6][8] d[6][8] s[6][9] </args>
      <args> s[6][9] d[6][9] s[6][10] </args>
      <args> s[6][10] d[6][10] s[6][11] </args>
      <args> s[6][11] d[6][11] s[6][12] </args>
      <args> s[6][12] d[6][12] s[6][13] </args>
      <args> s[6][13] d[6][13] s[6][14] </args>
      <args> s[7][0] d[7][0] s[7][1] </args>
      <args> s[7][1] d[7][1] s[7][2] </args>
      <args> s[7][2] d[7][2] s[7][3] </args>
      <args> s[7][3] d[7][3] s[7][4] </args>
      <args> s[7][4] d[7][4] s[7][5] </args>
      <args> s[7][5] d[7][5] s[7][6] </args>
      <args> s[7][6] d[7][6] s[7][7] </args>
      <args> s[7][7] d[7][7] s[7][8] </args>
      <args> s[7][8] d[7][8] s[7][9] </args>
      <args> s[7][9] d[7][9] s[7][10] </args>
      <args> s[7][10] d[7][10] s[7][11] </args>
      <args> s[7][11] d[7][11] s[7][12] </args>
      <args> s[7][12] d[7][12] s[7][13] </args>
      <args> s[7][13] d[7][13] s[7][14] </args>
      <args> s[8][0] d[8][0] s[8][1] </args>
      <args> s[8][1] d[8][1] s[8][2] </args>
      <args> s[8][2] d[8][2] s[8][3] </args>
      <args> s[8][3] d[8][3] s[8][4] </args>
      <args> s[8][4] d[8][4] s[8][5] </args>
      <args> s[8][5] d[8][5] s[8][6] </args>
      <args> s[8][6] d[8][6] s[8][7] </args>
      <args> s[8][7] d[8][7] s[8][8] </args>
      <args> s[8][8] d[8][8] s[8][9] </args>
      <args> s[8][9] d[8][9] s[8][10] </args>
      <args> s[8][10] d[8][10] s[8][11] </args>
      <args> s[8][11] d[8][11] s[8][12] </args>
      <args> s[8][12] d[8][12] s[8][13] </args>
      <args> s[8][13] d[8][13] s[8][14] </args>
      <args> s[9][0] d[9][0] s[9][1] </args>
      <args> s[9][1] d[9][1] s[9][2] </args>
      <args> s[9][2] d[9][2] s[9][3] </args>
      <args> s[9][3] d[9][3] s[9][4] </args>
      <args> s[9][4] d[9][4] s[9][5] </args>
      <args> s[9][5] d[9][5] s[9][6] </args>
      <args> s[9][6] d[9][6] s[9][7] </args>
      <args> s[9][7] d[9][7] s[9][8] </args>
      <args> s[9][8] d[9][8] s[9][9] </args>
      <args> s[9][9] d[9][9] s[9][10] </args>
      <args> s[9][10] d[9][10] s[9][11] </args>
      <args> s[9][11] d[9][11] s[9][12] </args>
      <args> s[9][12] d[9][12] s[9][13] </args>
      <args> s[9][13] d[9][13] s[9][14] </args>
      <args> s[10][0] d[10][0] s[10][1] </args>
      <args> s[10][1] d[10][1] s[10][2] </args>
      <args> s[10][2] d[10][2] s[10][3] </args>
      <args> s[10][3] d[10][3] s[10][4] </args>
      <args> s[10][4] d[10][4] s[10][5] </args>
      <args> s[10][5] d[10][5] s[10][6] </args>
      <args> s[10][6] d[10][6] s[10][7] </args>
      <args> s[10][7] d[10][7] s[10][8] </args>
      <args> s[10][8] d[10][8] s[10][9] </args>
      <args> s[10][9] d[10][9] s[10][10] </args>
      <args> s[10][10] d[10][10] s[10][11] </args>
      <args> s[10][11] d[10][11] s[10][12] </args>
      <args> s[10][12] d[10][12] s[10][13] </args>
      <args> s[10][13] d[10][13] s[10][14] </args>
      <args> s[11][0] d[11][0] s[11][1] </args>
      <args> s[11][1] d[11][1] s[11][2] </args>
      <args> s[11][2] d[11][2] s[11][3] </args>
      <args> s[11][3] d[11][3] s[11][4] </args>
      <args> s[11][4] d[11][4] s[11][5] </args>
      <args> s[11][5] d[11][5] s[11][6] </args>
      <args> s[11][6] d[11][6] s[11][7] </args>
      <args> s[11][7] d[11][7] s[11][8] </args>
      <args> s[11][8] d[11][8] s[11][9] </args>
      <args> s[11][9] d[11][9] s[11][10] </args>
      <args> s[11][10] d[11][10] s[11][11] </args>
      <args> s[11][11] d[11][11] s[11][12] </args>
      <args> s[11][12] d[11][12] s[11][13] </args>
      <args> s[11][13] d[11][13] s[11][14] </args>
      <args> s[12][0] d[12][0] s[12][1] </args>
      <args> s[12][1] d[12][1] s[12][2] </args>
      <args> s[12][2] d[12][2] s[12][3] </args>
      <args> s[12][3] d[12][3] s[12][4] </args>
      <args> s[12][4] d[12][4] s[12][5] </args>
      <args> s[12][5] d[12][5] s[12][6] </args>
      <args> s[12][6] d[12][6] s[12][7] </args>
      <args> s[12][7] d[12][7] s[12][8] </args>
      <args> s[12][8] d[12][8] s[12][9] </args>
      <args> s[12][9] d[12][9] s[12][10] </args>
      <args> s[12][10] d[12][10] s[12][11] </args>
      <args> s[12][11] d[12][11] s[12][12] </args>
      <args> s[12][12] d[12][12] s[12][13] </args>
      <args> s[12][13] d[12][13] s[12][14] </args>
      <args> s[13][0] d[13][0] s[13][1] </args>
      <args> s[13][1] d[13][1] s[13][2] </args>
      <args> s[13][2] d[13][2] s[13][3] </args>
      <args> s[13][3] d[13][3] s[13][4] </args>
      <args> s[13][4] d[13][4] s[13][5] </args>
      <args> s[13][5] d[13][5] s[13][6] </args>
      <args> s[13][6] d[13][6] s[13][7] </args>
      <args> s[13][7] d[13][7] s[13][8] </args>
      <args> s[13][8] d[13][8] s[13][9] </args>
      <args> s[13][9] d[13][9] s[13][10] </args>
      <args> s[13][10] d[13][10] s[13][11] </args>
      <args> s[13][11] d[13][11] s[13][12] </args>
      <args> s[13][12] d[13][12] s[13][13] </args>
      <args> s[13][13] d[13][13] s[13][14] </args>
      <args> s[14][0] d[14][0] s[14][1] </args>
      <args> s[14][1] d[14][1] s[14][2] </args>
      <args> s[14][2] d[14][2] s[14][3] </args>
      <args> s[14][3] d[14][3] s[14][4] </args>
      <args> s[14][4] d[14][4] s[14][5] </args>
      <args> s[14][5] d[14][5] s[14][6] </args>
      <args> s[14][6] d[14][6] s[14][7] </args>
      <args> s[14][7] d[14][7] s[14][8] </args>
      <args> s[14][8] d[14][8] s[14][9] </args>
      <args> s[14][9] d[14][9] s[14][10] </args>
      <args> s[14][10] d[14][10] s[14][11] </args>
      <args> s[14][11] d[14][11] s[14][12] </args>
      <args> s[14][12] d[14][12] s[14][13] </args>
      <args> s[14][13] d[14][13] s[14][14] </args>
    </group>
    <block class="channeling">
      <group>
        <element>
          <list> sd[0][] </list>
          <index> %0 </index>
          <value> %1 </value>
        </element>
        <args> w[0][0] s[0][0] </args>
        <args> w[0][1] s[0][1] </args>
        <args> w[0][2] s[0][2] </args>
        <args> w[0][3] s[0][3] </args>
        <args> w[0][4] s[0][4] </args>
        <args> w[0][5] s[0][5] </args>
        <args> w[0][6] s[0][6] </args>
        <args> w[0][7] s[0][7] </args>
        <args> w[0][8] s[0][8] </args>
        <args> w[0][9] s[0][9] </args>
        <args> w[0][10] s[0][10] </args>
        <args> w[0][11] s[0][11] </args>
        <args> w[0][12] s[0][12] </args>
        <args> w[0][13] s[0][13] </args>
        <args> w[0][14] s[0][14] </args>
      </group>
      <group>
        <element>
          <list> sd[1][] </list>
          <index> %0 </index>
          <value> %1 </value>
        </element>
        <args> w[1][0] s[1][0] </args>
        <args> w[1][1] s[1][1] </args>
        <args> w[1][2] s[1][2] </args>
        <args> w[1][3] s[1][3] </args>
        <args> w[1][4] s[1][4] </args>
        <args> w[1][5] s[1][5] </args>
        <args> w[1][6] s[1][6] </args>
        <args> w[1][7] s[1][7] </args>
        <args> w[1][8] s[1][8] </args>
        <args> w[1][9] s[1][9] </args>
        <args> w[1][10] s[1][10] </args>
        <args> w[1][11] s[1][11] </args>
        <args> w[1][12] s[1][12] </args>
        <args> w[1][13] s[1][13] </args>
        <args> w[1][14] s[1][14] </args>
      </group>
      <group>
        <element>
          <list> sd[2][] </list>
          <index> %0 </index>
          <value> %1 </value>
        </element>
        <args> w[2][0] s[2][0] </args>
        <args> w[2][1] s[2][1] </args>
        <args> w[2][2] s[2][2] </args>
        <args> w[2][3] s[2][3] </args>
        <args> w[2][4] s[2][4] </args>
        <args> w[2][5] s[2][5] </args>
        <args> w[2][6] s[2][6] </args>
        <args> w[2][7] s[2][7] </args>
        <args> w[2][8] s[2][8] </args>
        <args> w[2][9] s[2][9] </args>
        <args> w[2][10] s[2][10] </args>
        <args> w[2][11] s[2][11] </args>
        <args> w[2][12] s[2][12] </args>
        <args> w[2][13] s[2][13] </args>
        <args> w[2][14] s[2][14] </args>
      </group>
      <group>
        <element>
          <list> sd[3][] </list>
          <index> %0 </index>
          <value> %1 </value>
        </element>
        <args> w[3][0] s[3][0] </args>
        <args> w[3][1] s[3][1] </args>
        <args> w[3][2] s[3][2] </args>
        <args> w[3][3] s[3][3] </args>
        <args> w[3][4] s[3][4] </args>
        <args> w[3][5] s[3][5] </args>
        <args> w[3][6] s[3][6] </args>
        <args> w[3][7] s[3][7] </args>
        <args> w[3][8] s[3][8] </args>
        <args> w[3][9] s[3][9] </args>
        <args> w[3][10] s[3][10] </args>
        <args> w[3][11] s[3][11] </args>
        <args> w[3][12] s[3][12] </args>
        <args> w[3][13] s[3][13] </args>
        <args> w[3][14] s[3][14] </args>
      </group>
      <group>
        <element>
          <list> sd[4][] </list>
          <index> %0 </index>
          <value> %1 </value>
        </element>
        <args> w[4][0] s[4][0] </args>
        <args> w[4][1] s[4][1] </args>
        <args> w[4][2] s[4][2] </args>
        <args> w[4][3] s[4][3] </args>
        <args> w[4][4] s[4][4] </args>
        <args> w[4][5] s[4][5] </args>
        <args> w[4][6] s[4][6] </args>
        <args> w[4][7] s[4][7] </args>
        <args> w[4][8] s[4][8] </args>
        <args> w[4][9] s[4][9] </args>
        <args> w[4][10] s[4][10] </args>
        <args> w[4][11] s[4][11] </args>
        <args> w[4][12] s[4][12] </args>
        <args> w[4][13] s[4][13] </args>
        <args> w[4][14] s[4][14] </args>
      </group>
      <group>
        <element>
          <list> sd[5][] </list>
          <index> %0 </index>
          <value> %1 </value>
        </element>
        <args> w[5][0] s[5][0] </args>
        <args> w[5][1] s[5][1] </args>
        <args> w[5][2] s[5][2] </args>
        <args> w[5][3] s[5][3] </args>
        <args> w[5][4] s[5][4] </args>
        <args> w[5][5] s[5][5] </args>
        <args> w[5][6] s[5][6] </args>
        <args> w[5][7] s[5][7] </args>
        <args> w[5][8] s[5][8] </args>
        <args> w[5][9] s[5][9] </args>
        <args> w[5][10] s[5][10] </args>
        <args> w[5][11] s[5][11] </args>
        <args> w[5][12] s[5][12] </args>
        <args> w[5][13] s[5][13] </args>
        <args> w[5][14] s[5][14] </args>
      </group>
      <group>
        <element>
          <list> sd[6][] </list>
          <index> %0 </index>
          <value> %1 </value>
        </element>
        <args> w[6][0] s[6][0] </args>
        <args> w[6][1] s[6][1] </args>
        <args> w[6][2] s[6][2] </args>
        <args> w[6][3] s[6][3] </args>
        <args> w[6][4] s[6][4] </args>
        <args> w[6][5] s[6][5] </args>
        <args> w[6][6] s[6][6] </args>
        <args> w[6][7] s[6][7] </args>
        <args> w[6][8] s[6][8] </args>
        <args> w[6][9] s[6][9] </args>
        <args> w[6][10] s[6][10] </args>
        <args> w[6][11] s[6][11] </args>
        <args> w[6][12] s[6][12] </args>
        <args> w[6][13] s[6][13] </args>
        <args> w[6][14] s[6][14] </args>
      </group>
      <group>
        <element>
          <list> sd[7][] </list>
          <index> %0 </index>
          <value> %1 </value>
        </element>
        <args> w[7][0] s[7][0] </args>
        <args> w[7][1] s[7][1] </args>
        <args> w[7][2] s[7][2] </args>
        <args> w[7][3] s[7][3] </args>
        <args> w[7][4] s[7][4] </args>
        <args> w[7][5] s[7][5] </args>
        <args> w[7][6] s[7][6] </args>
        <args> w[7][7] s[7][7] </args>
        <args> w[7][8] s[7][8] </args>
        <args> w[7][9] s[7][9] </args>
        <args> w[7][10] s[7][10] </args>
        <args> w[7][11] s[7][11] </args>
        <args> w[7][12] s[7][12] </args>
        <args> w[7][13] s[7][13] </args>
        <args> w[7][14] s[7][14] </args>
      </group>
      <group>
        <element>
          <list> sd[8][] </list>
          <index> %0 </index>
          <value> %1 </value>
        </element>
        <args> w[8][0] s[8][0] </args>
        <args> w[8][1] s[8][1] </args>
        <args> w[8][2] s[8][2] </args>
        <args> w[8][3] s[8][3] </args>
        <args> w[8][4] s[8][4] </args>
        <args> w[8][5] s[8][5] </args>
        <args> w[8][6] s[8][6] </args>
        <args> w[8][7] s[8][7] </args>
        <args> w[8][8] s[8][8] </args>
        <args> w[8][9] s[8][9] </args>
        <args> w[8][10] s[8][10] </args>
        <args> w[8][11] s[8][11] </args>
        <args> w[8][12] s[8][12] </args>
        <args> w[8][13] s[8][13] </args>
        <args> w[8][14] s[8][14] </args>
      </group>
      <group>
        <element>
          <list> sd[9][] </list>
          <index> %0 </index>
          <value> %1 </value>
        </element>
        <args> w[9][0] s[9][0] </args>
        <args> w[9][1] s[9][1] </args>
        <args> w[9][2] s[9][2] </args>
        <args> w[9][3] s[9][3] </args>
        <args> w[9][4] s[9][4] </args>
        <args> w[9][5] s[9][5] </args>
        <args> w[9][6] s[9][6] </args>
        <args> w[9][7] s[9][7] </args>
        <args> w[9][8] s[9][8] </args>
        <args> w[9][9] s[9][9] </args>
        <args> w[9][10] s[9][10] </args>
        <args> w[9][11] s[9][11] </args>
        <args> w[9][12] s[9][12] </args>
        <args> w[9][13] s[9][13] </args>
        <args> w[9][14] s[9][14] </args>
      </group>
      <group>
        <element>
          <list> sd[10][] </list>
          <index> %0 </index>
          <value> %1 </value>
        </element>
        <args> w[10][0] s[10][0] </args>
        <args> w[10][1] s[10][1] </args>
        <args> w[10][2] s[10][2] </args>
        <args> w[10][3] s[10][3] </args>
        <args> w[10][4] s[10][4] </args>
        <args> w[10][5] s[10][5] </args>
        <args> w[10][6] s[10][6] </args>
        <args> w[10][7] s[10][7] </args>
        <args> w[10][8] s[10][8] </args>
        <args> w[10][9] s[10][9] </args>
        <args> w[10][10] s[10][10] </args>
        <args> w[10][11] s[10][11] </args>
        <args> w[10][12] s[10][12] </args>
        <args> w[10][13] s[10][13] </args>
        <args> w[10][14] s[10][14] </args>
      </group>
      <group>
        <element>
          <list> sd[11][] </list>
          <index> %0 </index>
          <value> %1 </value>
        </element>
        <args> w[11][0] s[11][0] </args>
        <args> w[11][1] s[11][1] </args>
        <args> w[11][2] s[11][2] </args>
        <args> w[11][3] s[11][3] </args>
        <args> w[11][4] s[11][4] </args>
        <args> w[11][5] s[11][5] </args>
        <args> w[11][6] s[11][6] </args>
        <args> w[11][7] s[11][7] </args>
        <args> w[11][8] s[11][8] </args>
        <args> w[11][9] s[11][9] </args>
        <args> w[11][10] s[11][10] </args>
        <args> w[11][11] s[11][11] </args>
        <args> w[11][12] s[11][12] </args>
        <args> w[11][13] s[11][13] </args>
        <args> w[11][14] s[11][14] </args>
      </group>
      <group>
        <element>
          <list> sd[12][] </list>
          <index> %0 </index>
          <value> %1 </value>
        </element>
        <args> w[12][0] s[12][0] </args>
        <args> w[12][1] s[12][1] </args>
        <args> w[12][2] s[12][2] </args>
        <args> w[12][3] s[12][3] </args>
        <args> w[12][4] s[12][4] </args>
        <args> w[12][5] s[12][5] </args>
        <args> w[12][6] s[12][6] </args>
        <args> w[12][7] s[12][7] </args>
        <args> w[12][8] s[12][8] </args>
        <args> w[12][9] s[12][9] </args>
        <args> w[12][10] s[12][10] </args>
        <args> w[12][11] s[12][11] </args>
        <args> w[12][12] s[12][12] </args>
        <args> w[12][13] s[12][13] </args>
        <args> w[12][14] s[12][14] </args>
      </group>
      <group>
        <element>
          <list> sd[13][] </list>
          <index> %0 </index>
          <value> %1 </value>
        </element>
        <args> w[13][0] s[13][0] </args>
        <args> w[13][1] s[13][1] </args>
        <args> w[13][2] s[13][2] </args>
        <args> w[13][3] s[13][3] </args>
        <args> w[13][4] s[13][4] </args>
        <args> w[13][5] s[13][5] </args>
        <args> w[13][6] s[13][6] </args>
        <args> w[13][7] s[13][7] </args>
        <args> w[13][8] s[13][8] </args>
        <args> w[13][9] s[13][9] </args>
        <args> w[13][10] s[13][10] </args>
        <args> w[13][11] s[13][11] </args>
        <args> w[13][12] s[13][12] </args>
        <args> w[13][13] s[13][13] </args>
        <args> w[13][14] s[13][14] </args>
      </group>
      <group>
        <element>
          <list> sd[14][] </list>
          <index> %0 </index>
          <value> %1 </value>
        </element>
        <args> w[14][0] s[14][0] </args>
        <args> w[14][1] s[14][1] </args>
        <args> w[14][2] s[14][2] </args>
        <args> w[14][3] s[14][3] </args>
        <args> w[14][4] s[14][4] </args>
        <args> w[14][5] s[14][5] </args>
        <args> w[14][6] s[14][6] </args>
        <args> w[14][7] s[14][7] </args>
        <args> w[14][8] s[14][8] </args>
        <args> w[14][9] s[14][9] </args>
        <args> w[14][10] s[14][10] </args>
        <args> w[14][11] s[14][11] </args>
        <args> w[14][12] s[14][12] </args>
        <args> w[14][13] s[14][13] </args>
        <args> w[14][14] s[14][14] </args>
      </group>
    </block>
    <block>
      <noOverlap>
        <origins> sd[][0] </origins>
        <lengths> 73 23 64 59 19 67 63 48 98 5 4 56 31 4 9 </lengths>
      </noOverlap>
      <noOverlap>
        <origins> sd[][1] </origins>
        <lengths> 92 33 89 65 39 24 63 5 18 64 18 28 23 26 82 </lengths>
      </noOverlap>
      <noOverlap>
        <origins> sd[][2] </origins>
        <lengths> 60 52 90 94 18 7 32 70 64 43 18 17 22 37 80 </lengths>
      </noOverlap>
      <noOverlap>
        <origins> sd[][3] </origins>
        <lengths> 16 51 1 66 95 75 37 71 88 50 82 19 45 51 3 </lengths>
      </noOverlap>
      <noOverlap>
        <origins> sd[][4] </origins>
        <lengths> 47 46 37 18 99 87 41 12 43 89 66 29 86 7 73 </lengths>
      </noOverlap>
      <noOverlap>
        <origins> sd[][5] </origins>
        <lengths> 8 56 80 50 53 22 78 80 17 2 58 50 94 57 21 </lengths>
      </noOverlap>
      <noOverlap>
        <origins> sd[][6] </origins>
        <lengths> 82 66 40 15 69 47 54 53 69 12 15 91 26 60 28 </lengths>
      </noOverlap>
      <noOverlap>
        <origins> sd[][7] </origins>
        <lengths> 64 54 38 34 43 95 14 64 77 90 18 13 69 63 38 </lengths>
      </noOverlap>
      <noOverlap>
        <origins> sd[][8] </origins>
        <lengths> 96 35 62 71 65 31 61 23 36 65 64 95 16 92 11 </lengths>
      </noOverlap>
      <noOverlap>
        <origins> sd[][9] </origins>
        <lengths> 32 35 67 94 58 77 89 4 26 61 67 40 39 3 19 </lengths>
      </noOverlap>
      <noOverlap>
        <origins> sd[][10] </origins>
        <lengths> 85 60 78 6 73 78 9 11 60 72 24 33 19 86 23 </lengths>
      </noOverlap>
      <noOverlap>
        <origins> sd[][11] </origins>
        <lengths> 70 14 14 18 91 33 12 74 19 1 63 41 45 34 56 </lengths>
      </noOverlap>
      <noOverlap>
        <origins> sd[][12] </origins>
        <lengths> 54 32 98 79 11 5 70 58 85 49 64 95 26 50 20 </lengths>
      </noOverlap>
      <noOverlap>
        <origins> sd[][13] </origins>
        <lengths> 23 33 37 92 49 16 92 61 75 50 40 29 1 66 43 </lengths>
      </noOverlap>
      <noOverlap>
        <origins> sd[][14] </origins>
        <lengths> 69 26 65 55 56 92 13 25 44 26 10 82 65 8 39 </lengths>
      </noOverlap>
    </block>
    <group class="redundantConstraints">
      <intension> ge(%0,%1) </intension>
      <args> e[0] 871 </args>
      <args> e[1] 616 </args>
      <args> e[2] 860 </args>
      <args> e[3] 816 </args>
      <args> e[4] 838 </args>
      <args> e[5] 756 </args>
      <args> e[6] 728 </args>
      <args> e[7] 659 </args>
      <args> e[8] 819 </args>
      <args> e[9] 679 </args>
      <args> e[10] 611 </args>
      <args> e[11] 718 </args>
      <args> e[12] 607 </args>
      <args> e[13] 644 </args>
      <args> e[14] 545 </args>
    </group>
  </constraints>
  <objectives>
    <minimize type="maximum"> e[] </minimize>
  </objectives>
</instance>
